0 1943
1 1713
2 1647
3 1522
4 1513
5 1460
6 1419
7 1410
8 1366
9 1346
10 1331
11 1296
12 1279
13 1242
14 1211
15 1192
16 1142
17 1117
18 1117
19 1087
20 1072
21 1063
22 1043
23 1039
24 1020
25 1009
26 1000
27 989
28 978
29 963
30 959
31 945
32 939
33 925
34 924
35 916
36 910
37 907
38 887
39 887
40 883
41 881
42 877
43 877
44 875
45 874
46 867
47 867
48 867
49 867
50 867
51 867
52 867
53 867
54 867
55 867
56 867
57 867
58 867
59 867
60 867
61 867
62 867
63 867
64 867
65 867
66 867
67 867
68 867
69 867
70 867
71 867
72 867
73 867
74 867
75 867
76 867
77 867
78 867
79 867
80 867
81 867
82 867
83 867
84 867
85 867
86 867
87 867
88 867
89 867
90 867
91 867
92 867
93 867
94 867
95 867
96 867
97 867
98 867
99 867
100 867
101 867
102 867
103 867
104 867
105 867
106 867
107 867
108 867
109 867
110 867
111 867
112 867
113 867
114 867
115 867
116 867
117 867
118 867
119 867
120 867
121 867
122 867
123 867
124 867
125 867
126 867
127 867
128 867
129 867
130 867
131 867
132 867
133 867
134 867
135 867
136 867
137 867
138 867
139 867
140 867
141 867
142 867
143 867
144 867
145 867
146 867
147 867
148 867
149 867
150 867
151 867
152 867
153 867
154 867
155 867
156 867
157 867
158 867
159 867
160 867
161 867
162 867
163 867
164 867
165 867
166 867
167 867
168 867
169 867
170 867
171 867
172 867
173 867
174 867
175 867
176 867
177 867
178 867
179 867
180 867
181 867
182 867
183 867
184 867
185 867
186 867
187 867
188 867
189 867
190 867
191 867
192 867
193 867
194 867
195 867
196 867
197 867
198 867
199 867
200 867
201 867
202 867
203 867
204 867
205 867
206 867
207 867
208 867
209 867
210 867
211 867
212 867
213 867
214 867
215 867
216 867
217 867
218 867
219 867
220 867
221 867
222 867
223 867
224 867
225 867
226 867
227 867
228 867
229 867
230 867
231 867
232 867
233 867
234 867
235 867
236 867
237 867
238 867
239 867
240 867
241 867
242 867
243 867
244 867
245 867
246 867
247 867
248 867
249 867
250 867
251 867
252 867
253 867
254 867
255 867
256 867
257 867
258 867
259 867
260 867
261 867
262 867
263 867
264 867
265 867
266 867
267 867
268 867
269 867
270 867
271 867
272 867
273 867
274 867
275 867
276 867
277 867
278 867
279 867
280 867
281 867
282 867
283 867
284 867
285 867
286 867
287 867
288 867
289 867
290 867
291 867
292 867
293 867
294 867
295 867
296 867
297 867
298 867
299 867
300 867
301 867
302 867
303 867
304 867
305 867
306 867
307 867
308 867
309 867
310 867
311 867
312 867
313 867
314 867
315 867
316 867
317 867
318 867
319 867
320 867
321 867
322 867
323 867
324 867
325 867
326 867
327 867
328 867
329 867
330 867
331 867
332 867
333 867
334 867
335 867
336 867
337 867
338 867
339 867
340 867
341 867
342 867
343 867
344 867
345 867
346 867
347 867
348 867
349 867
350 867
351 867
352 867
353 867
354 867
355 867
356 867
357 867
358 867
359 867
360 867
361 867
362 867
363 867
364 867
365 867
366 867
367 867
368 867
369 867
370 867
371 867
372 867
373 867
374 867
375 867
376 867
377 867
378 867
379 867
380 867
381 867
382 867
383 867
384 867
385 867
386 867
387 867
388 867
389 867
390 867
391 867
392 867
393 867
394 867
395 867
396 867
397 867
398 867
399 867
400 867
401 867
402 867
403 867
404 867
405 867
406 867
407 867
408 867
409 867
410 867
411 867
412 867
413 867
414 867
415 867
416 867
417 867
418 867
419 867
420 867
421 867
422 867
423 867
424 867
425 867
426 867
427 867
428 867
429 867
430 867
431 867
432 867
433 867
434 867
435 867
436 867
437 867
438 867
439 867
440 867
441 867
442 867
443 867
444 867
445 867
446 867
447 867
448 867
449 867
450 867
451 867
452 867
453 867
454 867
455 867
456 867
457 867
458 867
459 867
460 867
461 867
462 867
463 867
464 867
465 867
466 867
467 867
468 867
469 867
470 867
471 867
472 867
473 867
474 867
475 867
476 867
477 867
478 867
479 867
480 867
481 867
482 867
483 867
484 867
485 867
486 867
487 867
488 867
489 867
490 867
491 867
492 867
493 867
494 867
495 867
496 867
497 867
498 867
499 867
500 867
501 867
502 867
503 867
504 867
505 867
506 867
507 867
508 867
509 867
510 867
511 867
512 867
513 867
514 867
515 867
516 867
517 867
518 867
519 867
520 867
521 867
522 867
523 867
524 867
525 867
526 867
527 867
528 867
529 867
530 867
531 867
532 867
533 867
534 867
535 867
536 867
537 867
538 867
539 867
540 867
541 867
542 867
543 867
544 867
545 867
546 867
547 867
548 867
549 867
550 867
551 867
552 867
553 867
554 867
555 867
556 867
557 867
558 867
559 867
560 867
561 867
562 867
563 867
564 867
565 867
566 867
567 867
568 867
569 867
570 867
571 867
572 867
573 867
574 867
575 867
576 867
577 867
578 867
579 867
580 867
581 867
582 867
583 867
584 867
585 867
586 867
587 867
588 867
589 867
590 867
591 867
592 867
593 867
594 867
595 867
596 867
597 867
598 867
599 867
600 867
601 867
602 867
603 867
604 867
605 867
606 867
607 867
608 867
609 867
610 867
611 867
612 867
613 867
614 867
615 867
616 867
617 867
618 867
619 867
620 867
621 867
622 867
623 867
624 867
625 867
626 867
627 867
628 867
629 867
630 867
631 867
632 867
633 867
634 867
635 867
636 867
637 867
638 867
639 867
640 867
641 867
642 867
643 867
644 867
645 867
646 867
647 867
648 867
649 867
650 867
651 867
652 867
653 867
654 867
655 867
656 867
657 867
658 867
659 867
660 867
661 867
662 867
663 867
664 867
665 867
666 867
667 867
668 867
669 867
670 867
671 867
672 867
673 867
674 867
675 867
676 867
677 867
678 867
679 867
680 867
681 867
682 867
683 867
684 867
685 867
686 867
687 867
688 867
689 867
690 867
691 867
692 867
693 867
694 867
695 867
696 867
697 867
698 867
699 867
700 867
701 867
702 867
703 867
704 867
705 867
706 867
707 867
708 867
709 867
710 867
711 867
712 867
713 867
714 867
715 867
716 867
717 867
718 867
719 867
720 867
721 867
722 867
723 867
724 867
725 867
726 867
727 867
728 867
729 867
730 867
731 867
732 867
733 867
734 867
735 867
736 867
737 867
738 867
739 867
740 867
741 867
742 867
743 867
744 867
745 867
746 867
747 867
748 867
749 867
750 867
751 867
752 867
753 867
754 867
755 867
756 867
757 867
758 867
759 867
760 867
761 867
762 867
763 867
764 867
765 867
766 867
767 867
768 867
769 867
770 867
771 867
772 867
773 867
774 867
775 867
776 867
777 867
778 867
779 867
780 867
781 867
782 867
783 867
784 867
785 867
786 867
787 867
788 867
789 867
790 867
791 867
792 867
793 867
794 867
795 867
796 867
797 867
798 867
799 867
800 867
801 867
802 867
803 867
804 867
805 867
806 867
807 867
808 867
809 867
810 867
811 867
812 867
813 867
814 867
815 867
816 867
817 867
818 867
819 867
820 867
821 867
822 867
823 867
824 867
825 867
826 867
827 867
828 867
829 867
830 867
831 867
832 867
833 867
834 867
835 867
836 867
837 867
838 867
839 867
840 867
841 867
842 867
843 867
844 867
845 867
846 867
847 867
848 867
849 867
850 867
851 867
852 867
853 867
854 867
855 867
856 867
857 867
858 867
859 867
860 867
861 867
862 867
863 867
864 867
865 867
866 867
867 867
868 867
869 867
870 867
871 867
872 867
873 867
874 867
875 867
876 867
877 867
878 867
879 867
880 867
881 867
882 867
883 867
884 867
885 867
886 867
887 867
888 867
889 867
890 867
891 867
892 867
893 867
894 867
895 867
896 867
897 867
898 867
899 867
900 867
901 867
902 867
903 867
904 867
905 867
906 867
907 867
908 867
909 867
910 867
911 867
912 867
913 867
914 867
915 867
916 867
917 867
918 867
919 867
920 867
921 867
922 867
923 867
924 867
925 867
926 867
927 867
928 867
929 867
930 867
931 867
932 867
933 867
934 867
935 867
936 867
937 867
938 867
939 867
940 867
941 867
942 867
943 867
944 867
945 867
946 867
947 867
948 867
949 867
950 867
951 867
952 867
953 867
954 867
955 867
956 867
957 867
958 867
959 867
960 867
961 867
962 867
963 867
964 867
965 867
966 867
967 867
968 867
969 867
970 867
971 867
972 867
973 867
974 867
975 867
976 867
977 867
978 867
979 867
980 867
981 867
982 867
983 867
984 867
985 867
986 867
987 867
988 867
989 867
990 867
991 867
992 867
993 867
994 867
995 867
996 867
997 867
998 867
999 867
Best: [[27,8,14,3,4,24,7],
       [13,2,17,31],
       [28,23,10,12,5,29,9,19],
       [21,30,16,11,26,6],
       [25,15,18,20,32,22]], fitness: 867
